NAME : S-U-8-20.1818.tour
COMMENT : Length = 1818
COMMENT : Found by LKH [Keld Helsgaun] Thu May 17 23:18:24 2018
TYPE : TOUR
DIMENSION : 31
TOUR_SECTION
1
19
18
27
20
4
16
8
2
5
12
9
30
23
26
31
28
29
25
21
22
10
14
11
6
7
15
3
13
17
24
-1
EOF
